100
128
16
17
55
26
43
41
24
32
5
55
32
16
37
50
47
57
56
45
17
22
33
18
63
39
14
31
1
1
30
48
6
54
54
11
12
28
38
61
11
33
11
36
21
32
52
11
52
46
3
4
16
20
58
24
38
27
17
1
38
6
47
22
14
34
35
46
15
63
25
25
13
27
27
28
33
4
16
28
15
13
3
19
35
37
30
60
22
6
3
26
28
40
36
54
1
3
50
33
38
1